adder32new.bc.cnf
c This is a CNF SAT formula in the DIMACS CNF format,
c produced with the bc2cnf translator by Tommi Junttila;
c see http://users.ics.aalto.fi/tjunttil/circuits/index.html
c final_output <-> 9
c S7_parallel_adder <-> 10
c C7 <-> 12
c C3 <-> 20
c P6 <-> 28
c P5 <-> 29
c P4 <-> 30
c P3 <-> 31
c P2 <-> 32
c P1 <-> 33
c P0 <-> 34
c S7 <-> 35
c A7 <-> 36
c XB_7 <-> 37
c B7 <-> 38
c Co_6 <-> 39
c G6 <-> 40
c A6 <-> 42
c XB_6 <-> 43
c B6 <-> 44
c Co_5 <-> 45
c G5 <-> 46
c A5 <-> 48
c XB_5 <-> 49
c B5 <-> 50
c Co_4 <-> 51
c G4 <-> 52
c A4 <-> 54
c XB_4 <-> 55
c B4 <-> 56
c Co_3 <-> 57
c G3 <-> 58
c A3 <-> 60
c XB_3 <-> 61
c B3 <-> 62
c Co_2 <-> 63
c G2 <-> 64
c A2 <-> 66
c XB_2 <-> 67
c B2 <-> 68
c Co_1 <-> 69
c G1 <-> 70
c A1 <-> 72
c XB_1 <-> 73
c B1 <-> 74
c Co_0 <-> 75
c G0 <-> 76
c A0 <-> 78
c XB_0 <-> 79
c B0 <-> 80
c ALUFN0 <-> 81
p cnf 81 213
1 37 -36 0
1 -37 36 0
-1 37 36 0
-1 -37 -36 0
2 43 -42 0
2 -43 42 0
-2 43 42 0
-2 -43 -42 0
3 49 -48 0
3 -49 48 0
-3 49 48 0
-3 -49 -48 0
4 55 -54 0
4 -55 54 0
-4 55 54 0
-4 -55 -54 0
5 61 -60 0
5 -61 60 0
-5 61 60 0
-5 -61 -60 0
6 67 -66 0
6 -67 66 0
-6 67 66 0
-6 -67 -66 0
7 73 -72 0
7 -73 72 0
-7 73 72 0
-7 -73 -72 0
8 79 -78 0
8 -79 78 0
-8 79 78 0
-8 -79 -78 0
9 35 -10 0
9 -35 10 0
-9 35 10 0
-9 -35 -10 0
9 0
10 12 -11 0
10 -12 11 0
-10 12 11 0
-10 -12 -11 0
11 38 -36 0
11 -38 36 0
-11 38 36 0
-11 -38 -36 0
12 -13 0
12 -40 0
-12 40 13 0
-13 14 0
-13 28 0
13 -28 -14 0
14 -15 0
14 -46 0
-14 46 15 0
-15 16 0
-15 29 0
15 -29 -16 0
16 -17 0
16 -52 0
-16 52 17 0
-17 18 0
-17 30 0
17 -30 -18 0
18 -19 0
18 -58 0
-18 58 19 0
-19 20 0
-19 31 0
19 -31 -20 0
20 -21 0
20 -23 0
-20 23 21 0
-21 22 0
-21 81 0
21 -81 -22 0
-22 25 0
-22 34 0
22 -34 -25 0
23 -24 0
23 -26 0
-23 26 24 0
-24 25 0
-24 76 0
24 -76 -25 0
-25 32 0
-25 33 0
25 -33 -32 0
26 -27 0
26 -64 0
-26 64 27 0
-27 32 0
-27 70 0
27 -70 -32 0
28 -42 0
28 -43 0
-28 43 42 0
29 -48 0
29 -49 0
-29 49 48 0
30 -54 0
30 -55 0
-30 55 54 0
31 -60 0
31 -61 0
-31 61 60 0
32 -66 0
32 -67 0
-32 67 66 0
33 -72 0
33 -73 0
-33 73 72 0
34 -78 0
34 -79 0
-34 79 78 0
35 39 -1 0
35 -39 1 0
-35 39 1 0
-35 -39 -1 0
37 81 -38 0
37 -81 38 0
-37 81 38 0
-37 -81 -38 0
39 -40 0
39 -41 0
-39 41 40 0
-40 42 0
-40 43 0
40 -43 -42 0
-41 2 0
-41 45 0
41 -45 -2 0
43 81 -44 0
43 -81 44 0
-43 81 44 0
-43 -81 -44 0
45 -46 0
45 -47 0
-45 47 46 0
-46 48 0
-46 49 0
46 -49 -48 0
-47 3 0
-47 51 0
47 -51 -3 0
49 81 -50 0
49 -81 50 0
-49 81 50 0
-49 -81 -50 0
51 -52 0
51 -53 0
-51 53 52 0
-52 54 0
-52 55 0
52 -55 -54 0
-53 4 0
-53 57 0
53 -57 -4 0
55 81 -56 0
55 -81 56 0
-55 81 56 0
-55 -81 -56 0
57 -58 0
57 -59 0
-57 59 58 0
-58 60 0
-58 61 0
58 -61 -60 0
-59 5 0
-59 63 0
59 -63 -5 0
61 81 -62 0
61 -81 62 0
-61 81 62 0
-61 -81 -62 0
63 -64 0
63 -65 0
-63 65 64 0
-64 66 0
-64 67 0
64 -67 -66 0
-65 6 0
-65 69 0
65 -69 -6 0
67 81 -68 0
67 -81 68 0
-67 81 68 0
-67 -81 -68 0
69 -70 0
69 -71 0
-69 71 70 0
-70 72 0
-70 73 0
70 -73 -72 0
-71 7 0
-71 75 0
71 -75 -7 0
73 81 -74 0
73 -81 74 0
-73 81 74 0
-73 -81 -74 0
75 -76 0
75 -77 0
-75 77 76 0
-76 78 0
-76 79 0
76 -79 -78 0
-77 8 0
-77 81 0
77 -81 -8 0
79 81 -80 0
79 -81 80 0
-79 81 80 0
-79 -81 -80 0
